% File represents an instance of a Composite Structure problem to be solved by a CP framework
% Created on 2025-03-25 14:05:13.596
T = 60;
n = 4;
m = 4;
edges = [(2, 1),
(3, 4),
(1, 3),
(2, 4)];
counts = [|20, 17, 12, 9,
|22, 17, 12, 9,
|20, 15, 12, 9,
|19, 15, 12, 9|];
